p cnf 211 324
16 23 42 51 52 0
16 23 42 51 -52 0
16 23 42 -51 52 0
16 23 42 -51 -52 0
-16 23 42 53 54 0
-16 23 42 53 -54 0
-16 23 42 -53 54 0
-16 23 42 -53 -54 0
26 41 -42 55 56 0
26 41 -42 55 -56 0
26 41 -42 -55 56 0
26 41 -42 -55 -56 0
-26 41 -42 57 58 0
-26 41 -42 57 -58 0
-26 41 -42 -57 58 0
-26 41 -42 -57 -58 0
32 -41 -42 59 60 0
32 -41 -42 59 -60 0
32 -41 -42 -59 60 0
32 -41 -42 -59 -60 0
6 15 -41 61 62 0
6 15 -41 61 -62 0
6 15 -41 -61 62 0
6 15 -41 -61 -62 0
-6 15 -32 63 64 0
-6 15 -32 63 -64 0
-6 15 -32 -63 64 0
-6 15 -32 -63 -64 0
1 -32 46 65 66 0
1 -32 46 65 -66 0
1 -32 46 -65 66 0
1 -32 46 -65 -66 0
-1 -32 46 67 68 0
-1 -32 46 67 -68 0
-1 -32 46 -67 68 0
-1 -32 46 -67 -68 0
-15 -41 -46 69 70 0
-15 -41 -46 69 -70 0
-15 -41 -46 -69 70 0
-15 -41 -46 -69 -70 0
-15 -21 -46 71 72 0
-15 -21 -46 71 -72 0
-15 -21 -46 -71 72 0
-15 -21 -46 -71 -72 0
-23 33 38 73 74 0
-23 33 38 73 -74 0
-23 33 38 -73 74 0
-23 33 38 -73 -74 0
-23 -33 38 75 76 0
-23 -33 38 75 -76 0
-23 -33 38 -75 76 0
-23 -33 38 -75 -76 0
8 22 33 77 78 0
8 22 33 77 -78 0
8 22 33 -77 78 0
8 22 33 -77 -78 0
8 22 -33 79 80 0
8 22 -33 79 -80 0
8 22 -33 -79 80 0
8 22 -33 -79 -80 0
-22 37 -38 81 82 0
-22 37 -38 81 -82 0
-22 37 -38 -81 82 0
-22 37 -38 -81 -82 0
13 36 -37 83 84 0
13 36 -37 83 -84 0
13 36 -37 -83 84 0
13 36 -37 -83 -84 0
13 -22 -36 85 86 0
13 -22 -36 85 -86 0
13 -22 -36 -85 86 0
13 -22 -36 -85 -86 0
-13 -22 -37 87 88 0
-13 -22 -37 87 -88 0
-13 -22 -37 -87 88 0
-13 -22 -37 -87 -88 0
11 -23 47 89 90 0
11 -23 47 89 -90 0
11 -23 47 -89 90 0
11 -23 47 -89 -90 0
-8 11 -47 91 92 0
-8 11 -47 91 -92 0
-8 11 -47 -91 92 0
-8 11 -47 -91 -92 0
-8 -11 39 93 94 0
-8 -11 39 93 -94 0
-8 -11 39 -93 94 0
-8 -11 39 -93 -94 0
-11 27 -39 95 96 0
-11 27 -39 95 -96 0
-11 27 -39 -95 96 0
-11 27 -39 -95 -96 0
-8 -11 -39 97 98 0
-8 -11 -39 97 -98 0
-8 -11 -39 -97 98 0
-8 -11 -39 -97 -98 0
-7 26 29 99 100 0
-7 26 29 99 -100 0
-7 26 29 -99 100 0
-7 26 29 -99 -100 0
-7 -26 29 101 102 0
-7 -26 29 101 -102 0
-7 -26 29 -101 102 0
-7 -26 29 -101 -102 0
-13 20 36 103 104 0
-13 20 36 103 -104 0
-13 20 36 -103 104 0
-13 20 36 -103 -104 0
-13 17 20 105 106 0
-13 17 20 105 -106 0
-13 17 20 -105 106 0
-13 17 20 -105 -106 0
5 -17 20 107 108 0
5 -17 20 107 -108 0
5 -17 20 -107 108 0
5 -17 20 -107 -108 0
5 -19 -45 109 110 0
5 -19 -45 109 -110 0
5 -19 -45 -109 110 0
5 -19 -45 -109 -110 0
-5 -10 -45 111 112 0
-5 -10 -45 111 -112 0
-5 -10 -45 -111 112 0
-5 -10 -45 -111 -112 0
6 25 47 113 114 0
6 25 47 113 -114 0
6 25 47 -113 114 0
6 25 47 -113 -114 0
-6 -10 25 115 116 0
-6 -10 25 115 -116 0
-6 -10 25 -115 116 0
-6 -10 25 -115 -116 0
-2 -27 37 117 118 0
-2 -27 37 117 -118 0
-2 -27 37 -117 118 0
-2 -27 37 -117 -118 0
-27 -36 40 119 120 0
-27 -36 40 119 -120 0
-27 -36 40 -119 120 0
-27 -36 40 -119 -120 0
18 39 -40 121 122 0
18 39 -40 121 -122 0
18 39 -40 -121 122 0
18 39 -40 -121 -122 0
-2 -19 31 123 124 0
-2 -19 31 123 -124 0
-2 -19 31 -123 124 0
-2 -19 31 -123 -124 0
5 18 -30 125 126 0
5 18 -30 125 -126 0
5 18 -30 -125 126 0
5 18 -30 -125 -126 0
-31 -43 -50 127 128 0
-31 -43 -50 127 -128 0
-31 -43 -50 -127 128 0
-31 -43 -50 -127 -128 0
10 -30 43 129 130 0
10 -30 43 129 -130 0
10 -30 43 -129 130 0
10 -30 43 -129 -130 0
10 -41 43 131 132 0
10 -41 43 131 -132 0
10 -41 43 -131 132 0
10 -41 43 -131 -132 0
19 21 29 133 134 0
19 21 29 133 -134 0
19 21 29 -133 134 0
19 21 29 -133 -134 0
37 42 45 135 136 0
37 42 45 135 -136 0
37 42 45 -135 136 0
37 42 45 -135 -136 0
-20 27 40 137 138 0
-20 27 40 137 -138 0
-20 27 40 -137 138 0
-20 27 40 -137 -138 0
-21 -36 48 139 140 0
-21 -36 48 139 -140 0
-21 -36 48 -139 140 0
-21 -36 48 -139 -140 0
31 -36 -48 141 142 0
31 -36 -48 141 -142 0
31 -36 -48 -141 142 0
31 -36 -48 -141 -142 0
3 -9 -18 143 144 0
3 -9 -18 143 -144 0
3 -9 -18 -143 144 0
3 -9 -18 -143 -144 0
16 -40 -47 145 146 0
16 -40 -47 145 -146 0
16 -40 -47 -145 146 0
16 -40 -47 -145 -146 0
1 -18 21 147 148 0
1 -18 21 147 -148 0
1 -18 21 -147 148 0
1 -18 21 -147 -148 0
2 28 32 149 150 0
2 28 32 149 -150 0
2 28 32 -149 150 0
2 28 32 -149 -150 0
-1 -24 -50 151 152 0
-1 -24 -50 151 -152 0
-1 -24 -50 -151 152 0
-1 -24 -50 -151 -152 0
-12 35 49 153 154 0
-12 35 49 153 -154 0
-12 35 49 -153 154 0
-12 35 49 -153 -154 0
-6 -36 45 155 156 0
-6 -36 45 155 -156 0
-6 -36 45 -155 156 0
-6 -36 45 -155 -156 0
7 12 -43 157 158 0
7 12 -43 157 -158 0
7 12 -43 -157 158 0
7 12 -43 -157 -158 0
7 30 -43 159 160 0
7 30 -43 159 -160 0
7 30 -43 -159 160 0
7 30 -43 -159 -160 0
-5 9 -17 161 162 0
-5 9 -17 161 -162 0
-5 9 -17 -161 162 0
-5 9 -17 -161 -162 0
3 14 50 163 164 0
3 14 50 163 -164 0
3 14 50 -163 164 0
3 14 50 -163 -164 0
-12 17 -49 165 166 0
-12 17 -49 165 -166 0
-12 17 -49 -165 166 0
-12 17 -49 -165 -166 0
24 34 49 167 168 0
24 34 49 167 -168 0
24 34 49 -167 168 0
24 34 49 -167 -168 0
14 -20 24 169 170 0
14 -20 24 169 -170 0
14 -20 24 -169 170 0
14 -20 24 -169 -170 0
-9 35 -49 171 172 0
-9 35 -49 171 -172 0
-9 35 -49 -171 172 0
-9 35 -49 -171 -172 0
-4 -47 50 173 174 0
-4 -47 50 173 -174 0
-4 -47 50 -173 174 0
-4 -47 50 -173 -174 0
4 44 -44 175 176 0
4 44 -44 175 -176 0
4 44 -44 -175 176 0
4 44 -44 -175 -176 0
28 -28 -38 177 178 0
28 -28 -38 177 -178 0
28 -28 -38 -177 178 0
28 -28 -38 -177 -178 0
2 4 -48 179 180 0
2 4 -48 179 -180 0
2 4 -48 -179 180 0
2 4 -48 -179 -180 0
-20 35 -44 181 182 0
-20 35 -44 181 -182 0
-20 35 -44 -181 182 0
-20 35 -44 -181 -182 0
30 -31 -43 183 184 0
30 -31 -43 183 -184 0
30 -31 -43 -183 184 0
30 -31 -43 -183 -184 0
-14 -29 35 185 186 0
-14 -29 35 185 -186 0
-14 -29 35 -185 186 0
-14 -29 35 -185 -186 0
-20 35 -35 187 188 0
-20 35 -35 187 -188 0
-20 35 -35 -187 188 0
-20 35 -35 -187 -188 0
19 -22 -24 189 190 0
19 -22 -24 189 -190 0
19 -22 -24 -189 190 0
19 -22 -24 -189 -190 0
-25 -28 48 191 192 0
-25 -28 48 191 -192 0
-25 -28 48 -191 192 0
-25 -28 48 -191 -192 0
-14 -34 44 193 194 0
-14 -34 44 193 -194 0
-14 -34 44 -193 194 0
-14 -34 44 -193 -194 0
9 20 44 195 196 0
9 20 44 195 -196 0
9 20 44 -195 196 0
9 20 44 -195 -196 0
-3 9 -29 197 198 0
-3 9 -29 197 -198 0
-3 9 -29 -197 198 0
-3 9 -29 -197 -198 0
17 34 -34 199 200 0
17 34 -34 199 -200 0
17 34 -34 -199 200 0
17 34 -34 -199 -200 0
12 48 201 202 203 0
12 48 201 202 -203 0
12 48 201 -202 203 0
12 48 201 -202 -203 0
12 48 -201 202 203 0
12 48 -201 202 -203 0
12 48 -201 -202 203 0
12 48 -201 -202 -203 0
-12 -25 -43 204 205 0
-12 -25 -43 204 -205 0
-12 -25 -43 -204 205 0
-12 -25 -43 -204 -205 0
-25 -31 48 206 207 0
-25 -31 48 206 -207 0
-25 -31 48 -206 207 0
-25 -31 48 -206 -207 0
14 -16 49 208 209 0
14 -16 49 208 -209 0
14 -16 49 -208 209 0
14 -16 49 -208 -209 0
-3 -4 -35 210 211 0
-3 -4 -35 210 -211 0
-3 -4 -35 -210 211 0
-3 -4 -35 -210 -211 0
